56893
30, 4, 47, 34, 54, 26, 49, 28, 55, 6, 3, 43, 40, 51, 37, 7, 20, 50, 24, 35, 5, 13, 41, 32, 8, 38, 44, 19, 17, 48, 53, 23, 21, 29, 22, 10, 16, 46, 39, 36, 15, 52, 42, 33, 1, 27, 25, 31, 11, 45, 14, 2, 9, 12, 18
